



9 9
8 12 6 10 2 17 7 5 1 16 5 13 4 3 3 10 0 2
4 18 2 10 1 1 7 9 8 17 6 11 5 9 3 6 0 4
0 9 2 15 8 4 6 15 5 16 3 18 1 13 4 7 7 2
6 3 4 18 5 3 8 2 3 4 0 14 7 13 1 16 2 14
7 13 1 3 2 4 0 19 8 11 5 11 3 12 6 4 4 11
6 4 3 1 1 13 8 6 5 11 4 12 2 11 7 18 0 19
5 2 4 3 8 15 3 15 7 18 2 13 6 4 0 15 1 16
6 10 7 1 0 5 1 3 2 12 4 10 8 18 5 9 3 16
4 16 6 11 2 18 7 5 5 7 1 14 3 19 0 7 8 17
